GLPSOL--GLPK LP/MIP Solver 5.0
Parameter(s) specified in the command line:
 --cpxlp --first inputs/new_tr/order/triang8_4_default_input.lp -o solutions/new_tr/triang8_4_default_input.lp
Reading problem data from 'inputs/new_tr/order/triang8_4_default_input.lp'...
inputs/new_tr/order/triang8_4_default_input.lp:7223: warning: lower bound of variable 'm_0_0' redefined
inputs/new_tr/order/triang8_4_default_input.lp:7223: warning: upper bound of variable 'm_0_0' redefined
6757 rows, 2629 columns, 19709 non-zeros
2629 integer variables, 2170 of which are binary
9815 lines were read
GLPK Integer Optimizer 5.0
6757 rows, 2629 columns, 19709 non-zeros
2629 integer variables, 2170 of which are binary
Preprocessing...
308 hidden packing inequaliti(es) were detected
40 hidden covering inequaliti(es) were detected
672 constraint coefficient(s) were reduced
3911 rows, 1430 columns, 10664 non-zeros
1430 integer variables, 1394 of which are binary
Scaling...
 A: min|aij| =  1.000e+00  max|aij| =  9.900e+01  ratio =  9.900e+01
GM: min|aij| =  4.111e-01  max|aij| =  2.432e+00  ratio =  5.916e+00
EQ: min|aij| =  1.690e-01  max|aij| =  1.000e+00  ratio =  5.916e+00
2N: min|aij| =  1.250e-01  max|aij| =  1.719e+00  ratio =  1.375e+01
Constructing initial basis...
Size of triangular part is 3575
Solving LP relaxation...
GLPK Simplex Optimizer 5.0
3911 rows, 1430 columns, 10664 non-zeros
      0: obj =   2.280000000e+02 inf =   4.408e+02 (516)
   1607: obj =   4.158724076e+02 inf =   1.129e-13 (0) 14
*  3000: obj =   2.690781018e+02 inf =   2.363e-13 (0) 13
OPTIMAL LP SOLUTION FOUND
Integer optimization begins...
Long-step dual simplex will be used
+  3000: mip =     not found yet >=              -inf        (1; 0)
+ 17271: >>>>>   3.440000000e+02 >=   2.700000000e+02  21.5% (74; 1)
+ 41342: mip =   3.440000000e+02 >=   2.700000000e+02  21.5% (97; 44)
+ 66065: mip =   3.440000000e+02 >=   2.700000000e+02  21.5% (131; 46)
+ 82186: >>>>>   3.290000000e+02 >=   2.700000000e+02  17.9% (179; 50)
+105040: mip =   3.290000000e+02 >=   2.700000000e+02  17.9% (183; 104)
+129641: mip =   3.290000000e+02 >=   2.700000000e+02  17.9% (208; 109)
+152023: mip =   3.290000000e+02 >=   2.700000000e+02  17.9% (218; 116)
+173841: mip =   3.290000000e+02 >=   2.710000000e+02  17.6% (247; 121)
+197260: mip =   3.290000000e+02 >=   2.710000000e+02  17.6% (274; 127)
+220125: mip =   3.290000000e+02 >=   2.710000000e+02  17.6% (315; 132)
+243417: mip =   3.290000000e+02 >=   2.710000000e+02  17.6% (337; 137)
+266803: mip =   3.290000000e+02 >=   2.710000000e+02  17.6% (385; 144)
Time used: 60.3 secs.  Memory used: 9.4 Mb.
+289429: mip =   3.290000000e+02 >=   2.710000000e+02  17.6% (411; 149)
+313608: mip =   3.290000000e+02 >=   2.720000000e+02  17.3% (458; 163)
+335843: mip =   3.290000000e+02 >=   2.720000000e+02  17.3% (495; 169)
+357750: mip =   3.290000000e+02 >=   2.720000000e+02  17.3% (517; 176)
+380841: mip =   3.290000000e+02 >=   2.720000000e+02  17.3% (550; 185)
+402098: mip =   3.290000000e+02 >=   2.720000000e+02  17.3% (574; 192)
+426827: mip =   3.290000000e+02 >=   2.730000000e+02  17.0% (600; 197)
+450830: mip =   3.290000000e+02 >=   2.730000000e+02  17.0% (656; 209)
+472668: mip =   3.290000000e+02 >=   2.730000000e+02  17.0% (687; 215)
+495516: mip =   3.290000000e+02 >=   2.730000000e+02  17.0% (738; 220)
+520929: mip =   3.290000000e+02 >=   2.730000000e+02  17.0% (814; 231)
Time used: 120.5 secs.  Memory used: 13.5 Mb.
+543765: mip =   3.290000000e+02 >=   2.730000000e+02  17.0% (869; 239)
+558457: >>>>>   3.280000000e+02 >=   2.730000000e+02  16.8% (899; 240)
+581600: mip =   3.280000000e+02 >=   2.730000000e+02  16.8% (913; 275)
+603770: mip =   3.280000000e+02 >=   2.730000000e+02  16.8% (928; 285)
+628693: mip =   3.280000000e+02 >=   2.730000000e+02  16.8% (992; 298)
+651325: mip =   3.280000000e+02 >=   2.730000000e+02  16.8% (1024; 310)
+672681: mip =   3.280000000e+02 >=   2.730000000e+02  16.8% (1047; 318)
+697684: mip =   3.280000000e+02 >=   2.730000000e+02  16.8% (1090; 327)
+719695: mip =   3.280000000e+02 >=   2.730000000e+02  16.8% (1120; 331)
+735028: >>>>>   3.190000000e+02 >=   2.730000000e+02  14.4% (1152; 333)
+759223: mip =   3.190000000e+02 >=   2.730000000e+02  14.4% (1127; 491)
+780776: mip =   3.190000000e+02 >=   2.730000000e+02  14.4% (1140; 499)
Warning: numerical instability (dual simplex, phase II)
Warning: numerical instability (dual simplex, phase II)
Warning: numerical instability (dual simplex, phase II)
Warning: numerical instability (dual simplex, phase II)
Warning: numerical instability (dual simplex, phase II)
Warning: numerical instability (dual simplex, phase II)
Warning: numerical instability (dual simplex, phase II)
+803052: mip =   3.190000000e+02 >=   2.730000000e+02  14.4% (1143; 500)
Time used: 181.1 secs.  Memory used: 16.4 Mb.
+826313: mip =   3.190000000e+02 >=   2.730000000e+02  14.4% (1165; 511)
+850534: mip =   3.190000000e+02 >=   2.730000000e+02  14.4% (1219; 521)
+873472: mip =   3.190000000e+02 >=   2.730000000e+02  14.4% (1248; 528)
+896875: mip =   3.190000000e+02 >=   2.740000000e+02  14.1% (1287; 541)
+920105: mip =   3.190000000e+02 >=   2.740000000e+02  14.1% (1306; 549)
+943341: mip =   3.190000000e+02 >=   2.740000000e+02  14.1% (1377; 563)
+967785: mip =   3.190000000e+02 >=   2.740000000e+02  14.1% (1415; 572)
+989890: mip =   3.190000000e+02 >=   2.740000000e+02  14.1% (1434; 579)
+1011868: mip =   3.190000000e+02 >=   2.740000000e+02  14.1% (1446; 585)
Warning: numerical instability (dual simplex, phase II)
Warning: numerical instability (dual simplex, phase II)
Warning: numerical instability (dual simplex, phase II)
Warning: numerical instability (dual simplex, phase II)
Warning: numerical instability (dual simplex, phase II)
Warning: numerical instability (dual simplex, phase II)
Warning: numerical instability (dual simplex, phase II)
Warning: numerical instability (dual simplex, phase II)
Warning: numerical instability (dual simplex, phase II)
Warning: numerical instability (dual simplex, phase II)
Warning: dual simplex failed due to excessive numerical instability
+1036164: mip =   3.190000000e+02 >=   2.740000000e+02  14.1% (1468; 591)
Warning: numerical instability (dual simplex, phase II)
Warning: numerical instability (dual simplex, phase II)
Warning: numerical instability (dual simplex, phase II)
+1059740: mip =   3.190000000e+02 >=   2.740000000e+02  14.1% (1480; 599)
Time used: 241.8 secs.  Memory used: 20.1 Mb.
+1084049: mip =   3.190000000e+02 >=   2.740000000e+02  14.1% (1503; 602)
Warning: numerical instability (dual simplex, phase II)
Warning: numerical instability (dual simplex, phase II)
Warning: numerical instability (dual simplex, phase II)
Warning: numerical instability (dual simplex, phase II)
Warning: numerical instability (dual simplex, phase II)
Warning: numerical instability (dual simplex, phase II)
Warning: numerical instability (dual simplex, phase II)
Warning: numerical instability (dual simplex, phase II)
Warning: numerical instability (dual simplex, phase II)
Warning: numerical instability (dual simplex, phase II)
Warning: dual simplex failed due to excessive numerical instability
+1111741: mip =   3.190000000e+02 >=   2.740000000e+02  14.1% (1508; 604)
+1136155: mip =   3.190000000e+02 >=   2.740000000e+02  14.1% (1529; 612)
+1159980: mip =   3.190000000e+02 >=   2.740000000e+02  14.1% (1559; 626)
+1181114: mip =   3.190000000e+02 >=   2.740000000e+02  14.1% (1570; 635)
Warning: numerical instability (dual simplex, phase II)
Warning: numerical instability (dual simplex, phase II)
Warning: numerical instability (dual simplex, phase II)
Warning: numerical instability (dual simplex, phase II)
Warning: numerical instability (dual simplex, phase II)
Warning: numerical instability (dual simplex, phase II)
+1203451: mip =   3.190000000e+02 >=   2.740000000e+02  14.1% (1600; 644)
Warning: numerical instability (dual simplex, phase II)
+1227425: mip =   3.190000000e+02 >=   2.740000000e+02  14.1% (1606; 651)
+1252640: mip =   3.190000000e+02 >=   2.740000000e+02  14.1% (1623; 657)
+1273879: mip =   3.190000000e+02 >=   2.750000000e+02  13.8% (1626; 664)
+1297683: mip =   3.190000000e+02 >=   2.750000000e+02  13.8% (1673; 674)
+1322972: mip =   3.190000000e+02 >=   2.750000000e+02  13.8% (1712; 682)
Time used: 301.9 secs.  Memory used: 22.7 Mb.
+1345001: mip =   3.190000000e+02 >=   2.750000000e+02  13.8% (1721; 688)
+1368641: mip =   3.190000000e+02 >=   2.750000000e+02  13.8% (1777; 701)
+1391858: mip =   3.190000000e+02 >=   2.750000000e+02  13.8% (1826; 706)
+1415055: mip =   3.190000000e+02 >=   2.750000000e+02  13.8% (1884; 715)
+1438138: mip =   3.190000000e+02 >=   2.750000000e+02  13.8% (1927; 725)
+1461883: mip =   3.190000000e+02 >=   2.750000000e+02  13.8% (1959; 733)
+1484941: mip =   3.190000000e+02 >=   2.750000000e+02  13.8% (1992; 743)
+1509714: mip =   3.190000000e+02 >=   2.750000000e+02  13.8% (2014; 751)
+1533004: mip =   3.190000000e+02 >=   2.750000000e+02  13.8% (2049; 761)
+1556268: mip =   3.190000000e+02 >=   2.750000000e+02  13.8% (2075; 770)
+1579149: mip =   3.190000000e+02 >=   2.750000000e+02  13.8% (2112; 775)
Time used: 362.6 secs.  Memory used: 26.7 Mb.
+1601535: mip =   3.190000000e+02 >=   2.750000000e+02  13.8% (2133; 782)
+1624610: mip =   3.190000000e+02 >=   2.750000000e+02  13.8% (2160; 788)
+1650196: mip =   3.190000000e+02 >=   2.750000000e+02  13.8% (2174; 799)
+1673208: mip =   3.190000000e+02 >=   2.750000000e+02  13.8% (2184; 805)
+1695083: mip =   3.190000000e+02 >=   2.750000000e+02  13.8% (2201; 817)
+1717523: mip =   3.190000000e+02 >=   2.750000000e+02  13.8% (2212; 830)
+1739189: mip =   3.190000000e+02 >=   2.750000000e+02  13.8% (2230; 838)
Warning: numerical instability (dual simplex, phase II)
Warning: numerical instability (dual simplex, phase II)
Warning: numerical instability (dual simplex, phase II)
Warning: numerical instability (dual simplex, phase II)
Warning: numerical instability (dual simplex, phase II)
Warning: numerical instability (dual simplex, phase II)
Warning: basis matrix is ill-conditioned (cond = 1.39e+13)
Warning: numerical instability (dual simplex, phase II)
Warning: numerical instability (dual simplex, phase II)
Warning: numerical instability (dual simplex, phase II)
Warning: numerical instability (dual simplex, phase II)
Warning: dual simplex failed due to excessive numerical instability
+1765923: mip =   3.190000000e+02 >=   2.750000000e+02  13.8% (2238; 843)
+1789147: mip =   3.190000000e+02 >=   2.750000000e+02  13.8% (2249; 856)
+1810358: mip =   3.190000000e+02 >=   2.750000000e+02  13.8% (2256; 868)
+1834199: mip =   3.190000000e+02 >=   2.760000000e+02  13.5% (2264; 879)
Time used: 422.7 secs.  Memory used: 29.2 Mb.
+1857421: mip =   3.190000000e+02 >=   2.760000000e+02  13.5% (2277; 888)
+1881079: mip =   3.190000000e+02 >=   2.760000000e+02  13.5% (2314; 898)
+1905831: mip =   3.190000000e+02 >=   2.760000000e+02  13.5% (2324; 910)
+1928183: mip =   3.190000000e+02 >=   2.760000000e+02  13.5% (2350; 921)
+1951843: mip =   3.190000000e+02 >=   2.760000000e+02  13.5% (2382; 928)
Warning: numerical instability (dual simplex, phase II)
Warning: numerical instability (dual simplex, phase II)
+1976733: mip =   3.190000000e+02 >=   2.760000000e+02  13.5% (2416; 937)
+1999037: mip =   3.190000000e+02 >=   2.760000000e+02  13.5% (2427; 949)
+2022941: mip =   3.190000000e+02 >=   2.760000000e+02  13.5% (2465; 954)
+2047127: mip =   3.190000000e+02 >=   2.760000000e+02  13.5% (2493; 964)
+2069488: mip =   3.190000000e+02 >=   2.760000000e+02  13.5% (2512; 980)
Warning: numerical instability (dual simplex, phase II)
+2093236: mip =   3.190000000e+02 >=   2.760000000e+02  13.5% (2543; 985)
+2115760: mip =   3.190000000e+02 >=   2.760000000e+02  13.5% (2570; 995)
Time used: 482.7 secs.  Memory used: 32.3 Mb.
Warning: numerical instability (dual simplex, phase II)
Warning: numerical instability (dual simplex, phase II)
Warning: numerical instability (dual simplex, phase II)
Warning: numerical instability (dual simplex, phase II)
Warning: numerical instability (dual simplex, phase II)
Warning: numerical instability (dual simplex, phase II)
Warning: numerical instability (dual simplex, phase II)
Warning: numerical instability (dual simplex, phase II)
+2145214: mip =   3.190000000e+02 >=   2.760000000e+02  13.5% (2584; 1003)
+2168514: mip =   3.190000000e+02 >=   2.760000000e+02  13.5% (2613; 1009)
+2193918: mip =   3.190000000e+02 >=   2.760000000e+02  13.5% (2628; 1018)
+2215456: mip =   3.190000000e+02 >=   2.760000000e+02  13.5% (2642; 1032)
+2237427: mip =   3.190000000e+02 >=   2.760000000e+02  13.5% (2654; 1042)
+2259397: mip =   3.190000000e+02 >=   2.760000000e+02  13.5% (2680; 1058)
+2281194: mip =   3.190000000e+02 >=   2.760000000e+02  13.5% (2702; 1071)
+2302873: mip =   3.190000000e+02 >=   2.760000000e+02  13.5% (2709; 1083)
+2327068: mip =   3.190000000e+02 >=   2.760000000e+02  13.5% (2751; 1094)
Warning: numerical instability (dual simplex, phase II)
Warning: numerical instability (dual simplex, phase II)
+2351795: mip =   3.190000000e+02 >=   2.760000000e+02  13.5% (2779; 1099)
+2365263: >>>>>   3.140000000e+02 >=   2.760000000e+02  12.1% (2817; 1102)
+2386883: mip =   3.140000000e+02 >=   2.760000000e+02  12.1% (2689; 1384)
Time used: 542.7 secs.  Memory used: 35.0 Mb.
+2410243: mip =   3.140000000e+02 >=   2.760000000e+02  12.1% (2701; 1402)
+2431820: mip =   3.140000000e+02 >=   2.770000000e+02  11.8% (2704; 1416)
+2454294: mip =   3.140000000e+02 >=   2.770000000e+02  11.8% (2741; 1426)
+2478442: mip =   3.140000000e+02 >=   2.770000000e+02  11.8% (2800; 1443)
+2501794: mip =   3.140000000e+02 >=   2.770000000e+02  11.8% (2842; 1457)
+2527171: mip =   3.140000000e+02 >=   2.770000000e+02  11.8% (2876; 1469)
+2550097: mip =   3.140000000e+02 >=   2.770000000e+02  11.8% (2908; 1478)
+2572656: mip =   3.140000000e+02 >=   2.770000000e+02  11.8% (2930; 1494)
+2595539: mip =   3.140000000e+02 >=   2.770000000e+02  11.8% (2968; 1510)
+2620300: mip =   3.140000000e+02 >=   2.770000000e+02  11.8% (2997; 1526)
+2642328: mip =   3.140000000e+02 >=   2.770000000e+02  11.8% (3023; 1532)
Time used: 602.7 secs.  Memory used: 37.9 Mb.
+2666498: mip =   3.140000000e+02 >=   2.770000000e+02  11.8% (3058; 1550)
+2690253: mip =   3.140000000e+02 >=   2.770000000e+02  11.8% (3085; 1564)
+2715899: mip =   3.140000000e+02 >=   2.770000000e+02  11.8% (3108; 1572)
+2739615: mip =   3.140000000e+02 >=   2.770000000e+02  11.8% (3129; 1588)
+2763186: mip =   3.140000000e+02 >=   2.770000000e+02  11.8% (3150; 1596)
+2785583: mip =   3.140000000e+02 >=   2.770000000e+02  11.8% (3188; 1601)
+2808453: mip =   3.140000000e+02 >=   2.770000000e+02  11.8% (3208; 1609)
+2831597: mip =   3.140000000e+02 >=   2.770000000e+02  11.8% (3237; 1614)
+2853602: mip =   3.140000000e+02 >=   2.770000000e+02  11.8% (3262; 1622)
+2876032: mip =   3.140000000e+02 >=   2.770000000e+02  11.8% (3277; 1629)
+2899977: mip =   3.140000000e+02 >=   2.770000000e+02  11.8% (3290; 1636)
Time used: 662.9 secs.  Memory used: 41.0 Mb.
+2922908: mip =   3.140000000e+02 >=   2.770000000e+02  11.8% (3319; 1654)
+2947221: mip =   3.140000000e+02 >=   2.770000000e+02  11.8% (3333; 1665)
+2968694: mip =   3.140000000e+02 >=   2.770000000e+02  11.8% (3347; 1674)
+2990871: mip =   3.140000000e+02 >=   2.770000000e+02  11.8% (3385; 1684)
Warning: numerical instability (dual simplex, phase II)
Warning: numerical instability (dual simplex, phase II)
+3015297: mip =   3.140000000e+02 >=   2.770000000e+02  11.8% (3408; 1695)
+3037767: mip =   3.140000000e+02 >=   2.770000000e+02  11.8% (3431; 1702)
+3060419: mip =   3.140000000e+02 >=   2.770000000e+02  11.8% (3452; 1714)
+3082059: mip =   3.140000000e+02 >=   2.770000000e+02  11.8% (3466; 1717)
+3105127: mip =   3.140000000e+02 >=   2.770000000e+02  11.8% (3482; 1731)
+3127165: mip =   3.140000000e+02 >=   2.770000000e+02  11.8% (3486; 1742)
+3150780: mip =   3.140000000e+02 >=   2.770000000e+02  11.8% (3502; 1753)
+3172843: mip =   3.140000000e+02 >=   2.770000000e+02  11.8% (3512; 1760)
Time used: 723.2 secs.  Memory used: 43.6 Mb.
+3194978: mip =   3.140000000e+02 >=   2.770000000e+02  11.8% (3517; 1775)
+3218712: mip =   3.140000000e+02 >=   2.770000000e+02  11.8% (3524; 1787)
+3241459: mip =   3.140000000e+02 >=   2.770000000e+02  11.8% (3534; 1801)
+3266069: mip =   3.140000000e+02 >=   2.770000000e+02  11.8% (3550; 1815)
+3288397: mip =   3.140000000e+02 >=   2.780000000e+02  11.5% (3568; 1832)
+3313719: mip =   3.140000000e+02 >=   2.780000000e+02  11.5% (3591; 1847)
+3336921: mip =   3.140000000e+02 >=   2.780000000e+02  11.5% (3635; 1858)
+3360893: mip =   3.140000000e+02 >=   2.780000000e+02  11.5% (3651; 1863)
+3384258: mip =   3.140000000e+02 >=   2.780000000e+02  11.5% (3676; 1873)
+3406576: mip =   3.140000000e+02 >=   2.780000000e+02  11.5% (3687; 1879)
+3429637: mip =   3.140000000e+02 >=   2.780000000e+02  11.5% (3699; 1888)
Time used: 783.6 secs.  Memory used: 46.9 Mb.
+3451592: mip =   3.140000000e+02 >=   2.780000000e+02  11.5% (3729; 1898)
+3477051: mip =   3.140000000e+02 >=   2.780000000e+02  11.5% (3743; 1913)
+3500578: mip =   3.140000000e+02 >=   2.780000000e+02  11.5% (3764; 1918)
+3524851: mip =   3.140000000e+02 >=   2.780000000e+02  11.5% (3802; 1925)
+3547464: mip =   3.140000000e+02 >=   2.780000000e+02  11.5% (3836; 1932)
+3569260: mip =   3.140000000e+02 >=   2.780000000e+02  11.5% (3852; 1942)
+3592164: mip =   3.140000000e+02 >=   2.780000000e+02  11.5% (3872; 1951)
+3615613: mip =   3.140000000e+02 >=   2.780000000e+02  11.5% (3891; 1963)
+3639138: mip =   3.140000000e+02 >=   2.780000000e+02  11.5% (3951; 1971)
+3662999: mip =   3.140000000e+02 >=   2.780000000e+02  11.5% (3990; 1983)
+3687128: mip =   3.140000000e+02 >=   2.780000000e+02  11.5% (4011; 1988)
+3709907: mip =   3.140000000e+02 >=   2.780000000e+02  11.5% (4050; 1996)
Time used: 843.7 secs.  Memory used: 50.2 Mb.
+3735270: mip =   3.140000000e+02 >=   2.780000000e+02  11.5% (4067; 2004)
+3756156: mip =   3.140000000e+02 >=   2.780000000e+02  11.5% (4077; 2012)
+3779828: mip =   3.140000000e+02 >=   2.780000000e+02  11.5% (4085; 2021)
+3801924: mip =   3.140000000e+02 >=   2.780000000e+02  11.5% (4094; 2029)
Warning: numerical instability (dual simplex, phase II)
Warning: numerical instability (dual simplex, phase I)
Warning: numerical instability (dual simplex, phase II)
Warning: numerical instability (dual simplex, phase II)
Warning: numerical instability (dual simplex, phase II)
Warning: numerical instability (dual simplex, phase II)
Warning: numerical instability (dual simplex, phase II)
Warning: numerical instability (dual simplex, phase II)
Warning: numerical instability (dual simplex, phase II)
Warning: numerical instability (dual simplex, phase II)
Warning: dual simplex failed due to excessive numerical instability
+3835288: mip =   3.140000000e+02 >=   2.780000000e+02  11.5% (4103; 2038)
+3860475: mip =   3.140000000e+02 >=   2.780000000e+02  11.5% (4128; 2045)
+3884429: mip =   3.140000000e+02 >=   2.780000000e+02  11.5% (4159; 2055)
+3908184: mip =   3.140000000e+02 >=   2.780000000e+02  11.5% (4175; 2062)
+3930210: mip =   3.140000000e+02 >=   2.780000000e+02  11.5% (4182; 2070)
+3953215: mip =   3.140000000e+02 >=   2.780000000e+02  11.5% (4204; 2078)
+3976793: mip =   3.140000000e+02 >=   2.780000000e+02  11.5% (4217; 2087)
Time used: 903.7 secs.  Memory used: 52.5 Mb.
+3999510: mip =   3.140000000e+02 >=   2.780000000e+02  11.5% (4227; 2094)
Warning: numerical instability (dual simplex, phase II)
Warning: numerical instability (dual simplex, phase II)
Warning: numerical instability (dual simplex, phase II)
+4022274: mip =   3.140000000e+02 >=   2.780000000e+02  11.5% (4234; 2105)
Warning: numerical instability (dual simplex, phase II)
Warning: numerical instability (dual simplex, phase II)
Warning: numerical instability (dual simplex, phase II)
Warning: numerical instability (dual simplex, phase II)
+4050996: mip =   3.140000000e+02 >=   2.780000000e+02  11.5% (4240; 2119)
Solution found by heuristic: 312
+4074870: mip =   3.120000000e+02 >=   2.790000000e+02  10.6% (4047; 2706)
+4097937: mip =   3.120000000e+02 >=   2.790000000e+02  10.6% (4098; 2721)
+4121052: mip =   3.120000000e+02 >=   2.790000000e+02  10.6% (4164; 2736)
+4143833: mip =   3.120000000e+02 >=   2.790000000e+02  10.6% (4180; 2750)
+4167434: mip =   3.120000000e+02 >=   2.790000000e+02  10.6% (4218; 2757)
+4189679: mip =   3.120000000e+02 >=   2.790000000e+02  10.6% (4238; 2765)
+4212440: mip =   3.120000000e+02 >=   2.790000000e+02  10.6% (4254; 2771)
Warning: numerical instability (dual simplex, phase II)
Warning: numerical instability (dual simplex, phase II)
+4235559: mip =   3.120000000e+02 >=   2.790000000e+02  10.6% (4271; 2780)
Time used: 963.8 secs.  Memory used: 54.2 Mb.
+4259552: mip =   3.120000000e+02 >=   2.790000000e+02  10.6% (4287; 2788)
+4265276: >>>>>   3.060000000e+02 >=   2.790000000e+02   8.8% (4313; 2797)
+4288148: mip =   3.060000000e+02 >=   2.790000000e+02   8.8% (3781; 3918)
+4311950: mip =   3.060000000e+02 >=   2.790000000e+02   8.8% (3802; 3929)
+4334698: mip =   3.060000000e+02 >=   2.790000000e+02   8.8% (3814; 3942)
+4357884: mip =   3.060000000e+02 >=   2.790000000e+02   8.8% (3825; 3955)
+4381266: mip =   3.060000000e+02 >=   2.790000000e+02   8.8% (3832; 3972)
+4402840: mip =   3.060000000e+02 >=   2.790000000e+02   8.8% (3842; 3984)
+4428077: mip =   3.060000000e+02 >=   2.790000000e+02   8.8% (3840; 3999)
+4452129: mip =   3.060000000e+02 >=   2.790000000e+02   8.8% (3857; 4009)
+4475140: mip =   3.060000000e+02 >=   2.790000000e+02   8.8% (3869; 4017)
+4497696: mip =   3.060000000e+02 >=   2.790000000e+02   8.8% (3886; 4026)
Time used: 1024.3 secs.  Memory used: 54.4 Mb.
+4521903: mip =   3.060000000e+02 >=   2.790000000e+02   8.8% (3889; 4035)
+4543753: mip =   3.060000000e+02 >=   2.790000000e+02   8.8% (3894; 4045)
+4567426: mip =   3.060000000e+02 >=   2.790000000e+02   8.8% (3918; 4053)
+4593347: mip =   3.060000000e+02 >=   2.790000000e+02   8.8% (3924; 4062)
+4616259: mip =   3.060000000e+02 >=   2.790000000e+02   8.8% (3931; 4077)
+4639540: mip =   3.060000000e+02 >=   2.790000000e+02   8.8% (3950; 4085)
+4664871: mip =   3.060000000e+02 >=   2.790000000e+02   8.8% (3964; 4095)
+4687049: mip =   3.060000000e+02 >=   2.790000000e+02   8.8% (3977; 4106)
Warning: numerical instability (dual simplex, phase II)
Warning: numerical instability (dual simplex, phase II)
Warning: numerical instability (dual simplex, phase II)
Warning: numerical instability (dual simplex, phase II)
+4710411: mip =   3.060000000e+02 >=   2.790000000e+02   8.8% (3995; 4116)
+4734952: mip =   3.060000000e+02 >=   2.790000000e+02   8.8% (4005; 4138)
+4757913: mip =   3.060000000e+02 >=   2.790000000e+02   8.8% (4009; 4149)
Time used: 1084.5 secs.  Memory used: 55.3 Mb.
+4783025: mip =   3.060000000e+02 >=   2.790000000e+02   8.8% (4011; 4173)
+4806920: mip =   3.060000000e+02 >=   2.790000000e+02   8.8% (4020; 4180)
+4830810: mip =   3.060000000e+02 >=   2.800000000e+02   8.5% (4023; 4198)
+4855198: mip =   3.060000000e+02 >=   2.800000000e+02   8.5% (4024; 4212)
+4877644: mip =   3.060000000e+02 >=   2.800000000e+02   8.5% (4043; 4223)
+4902823: mip =   3.060000000e+02 >=   2.800000000e+02   8.5% (4053; 4235)
+4926764: mip =   3.060000000e+02 >=   2.800000000e+02   8.5% (4085; 4249)
+4951373: mip =   3.060000000e+02 >=   2.800000000e+02   8.5% (4108; 4259)
+4976572: mip =   3.060000000e+02 >=   2.800000000e+02   8.5% (4124; 4271)
+5000020: mip =   3.060000000e+02 >=   2.800000000e+02   8.5% (4144; 4278)
+5024168: mip =   3.060000000e+02 >=   2.800000000e+02   8.5% (4179; 4287)
+5047339: mip =   3.060000000e+02 >=   2.800000000e+02   8.5% (4205; 4293)
Time used: 1144.8 secs.  Memory used: 56.6 Mb.
+5069208: mip =   3.060000000e+02 >=   2.800000000e+02   8.5% (4230; 4297)
+5093365: mip =   3.060000000e+02 >=   2.800000000e+02   8.5% (4248; 4312)
+5117107: mip =   3.060000000e+02 >=   2.800000000e+02   8.5% (4261; 4326)
+5139648: mip =   3.060000000e+02 >=   2.800000000e+02   8.5% (4279; 4335)
+5164593: mip =   3.060000000e+02 >=   2.800000000e+02   8.5% (4296; 4351)
+5189286: mip =   3.060000000e+02 >=   2.800000000e+02   8.5% (4343; 4360)
+5212785: mip =   3.060000000e+02 >=   2.800000000e+02   8.5% (4366; 4373)
+5234644: mip =   3.060000000e+02 >=   2.800000000e+02   8.5% (4384; 4381)
+5257947: mip =   3.060000000e+02 >=   2.800000000e+02   8.5% (4416; 4391)
+5280579: mip =   3.060000000e+02 >=   2.800000000e+02   8.5% (4421; 4401)
+5303163: mip =   3.060000000e+02 >=   2.800000000e+02   8.5% (4440; 4411)
Time used: 1204.8 secs.  Memory used: 58.9 Mb.
+5327005: mip =   3.060000000e+02 >=   2.800000000e+02   8.5% (4463; 4418)
+5350406: mip =   3.060000000e+02 >=   2.800000000e+02   8.5% (4475; 4429)
+5375110: mip =   3.060000000e+02 >=   2.800000000e+02   8.5% (4489; 4440)
+5396648: mip =   3.060000000e+02 >=   2.800000000e+02   8.5% (4506; 4450)
+5422573: mip =   3.060000000e+02 >=   2.800000000e+02   8.5% (4517; 4467)
+5444493: mip =   3.060000000e+02 >=   2.800000000e+02   8.5% (4526; 4482)
+5466487: mip =   3.060000000e+02 >=   2.800000000e+02   8.5% (4552; 4492)
+5487999: mip =   3.060000000e+02 >=   2.800000000e+02   8.5% (4567; 4504)
+5512291: mip =   3.060000000e+02 >=   2.800000000e+02   8.5% (4586; 4514)
+5537057: mip =   3.060000000e+02 >=   2.800000000e+02   8.5% (4605; 4522)
+5559480: mip =   3.060000000e+02 >=   2.800000000e+02   8.5% (4621; 4529)
+5583736: mip =   3.060000000e+02 >=   2.800000000e+02   8.5% (4640; 4540)
Time used: 1265.3 secs.  Memory used: 61.5 Mb.
Warning: numerical instability (dual simplex, phase II)
Warning: numerical instability (dual simplex, phase II)
+5606773: mip =   3.060000000e+02 >=   2.800000000e+02   8.5% (4649; 4546)
Warning: numerical instability (dual simplex, phase II)
+5629259: mip =   3.060000000e+02 >=   2.800000000e+02   8.5% (4662; 4556)
+5655367: mip =   3.060000000e+02 >=   2.800000000e+02   8.5% (4668; 4570)
+5680849: mip =   3.060000000e+02 >=   2.800000000e+02   8.5% (4676; 4595)
+5703209: mip =   3.060000000e+02 >=   2.800000000e+02   8.5% (4694; 4611)
+5725119: mip =   3.060000000e+02 >=   2.800000000e+02   8.5% (4707; 4615)
+5748253: mip =   3.060000000e+02 >=   2.810000000e+02   8.2% (4754; 4634)
+5772173: mip =   3.060000000e+02 >=   2.810000000e+02   8.2% (4776; 4643)
+5794006: mip =   3.060000000e+02 >=   2.810000000e+02   8.2% (4788; 4652)
+5818583: mip =   3.060000000e+02 >=   2.810000000e+02   8.2% (4810; 4664)
+5841618: mip =   3.060000000e+02 >=   2.810000000e+02   8.2% (4844; 4688)
Time used: 1325.5 secs.  Memory used: 64.4 Mb.
+5867614: mip =   3.060000000e+02 >=   2.810000000e+02   8.2% (4862; 4718)
+5891185: mip =   3.060000000e+02 >=   2.810000000e+02   8.2% (4886; 4731)
+5916688: mip =   3.060000000e+02 >=   2.810000000e+02   8.2% (4900; 4753)
+5939138: mip =   3.060000000e+02 >=   2.810000000e+02   8.2% (4922; 4764)
+5961900: mip =   3.060000000e+02 >=   2.810000000e+02   8.2% (4945; 4789)
+5985557: mip =   3.060000000e+02 >=   2.810000000e+02   8.2% (4976; 4802)
+6009585: mip =   3.060000000e+02 >=   2.810000000e+02   8.2% (4995; 4812)
+6032400: mip =   3.060000000e+02 >=   2.810000000e+02   8.2% (5015; 4824)
+6056177: mip =   3.060000000e+02 >=   2.810000000e+02   8.2% (5024; 4837)
+6080974: mip =   3.060000000e+02 >=   2.810000000e+02   8.2% (5038; 4858)
+6106425: mip =   3.060000000e+02 >=   2.810000000e+02   8.2% (5058; 4877)
Time used: 1385.7 secs.  Memory used: 67.0 Mb.
+6130865: mip =   3.060000000e+02 >=   2.810000000e+02   8.2% (5058; 4897)
+6154053: mip =   3.060000000e+02 >=   2.810000000e+02   8.2% (5066; 4911)
Warning: numerical instability (dual simplex, phase II)
Warning: numerical instability (dual simplex, phase II)
Warning: numerical instability (dual simplex, phase II)
Warning: numerical instability (dual simplex, phase II)
+6177594: mip =   3.060000000e+02 >=   2.810000000e+02   8.2% (5077; 4915)
+6201138: mip =   3.060000000e+02 >=   2.810000000e+02   8.2% (5087; 4930)
+6223915: mip =   3.060000000e+02 >=   2.810000000e+02   8.2% (5083; 4954)
+6247174: mip =   3.060000000e+02 >=   2.810000000e+02   8.2% (5087; 4969)
+6271746: mip =   3.060000000e+02 >=   2.810000000e+02   8.2% (5097; 4986)
+6295721: mip =   3.060000000e+02 >=   2.810000000e+02   8.2% (5103; 5000)
+6318631: mip =   3.060000000e+02 >=   2.810000000e+02   8.2% (5110; 5010)
+6345111: mip =   3.060000000e+02 >=   2.810000000e+02   8.2% (5121; 5027)
+6370536: mip =   3.060000000e+02 >=   2.810000000e+02   8.2% (5136; 5045)
Time used: 1445.9 secs.  Memory used: 69.2 Mb.
+6393598: mip =   3.060000000e+02 >=   2.810000000e+02   8.2% (5157; 5064)
+6417225: mip =   3.060000000e+02 >=   2.810000000e+02   8.2% (5175; 5081)
+6439371: mip =   3.060000000e+02 >=   2.810000000e+02   8.2% (5179; 5099)
+6461660: mip =   3.060000000e+02 >=   2.810000000e+02   8.2% (5182; 5111)
+6484348: mip =   3.060000000e+02 >=   2.810000000e+02   8.2% (5197; 5116)
+6506933: mip =   3.060000000e+02 >=   2.810000000e+02   8.2% (5203; 5127)
+6532157: mip =   3.060000000e+02 >=   2.810000000e+02   8.2% (5204; 5144)
+6555573: mip =   3.060000000e+02 >=   2.810000000e+02   8.2% (5219; 5158)
+6578999: mip =   3.060000000e+02 >=   2.810000000e+02   8.2% (5238; 5172)
+6601887: mip =   3.060000000e+02 >=   2.810000000e+02   8.2% (5243; 5188)
+6625093: mip =   3.060000000e+02 >=   2.810000000e+02   8.2% (5254; 5202)
+6649893: mip =   3.060000000e+02 >=   2.810000000e+02   8.2% (5267; 5223)
Time used: 1506.1 secs.  Memory used: 71.6 Mb.
+6673437: mip =   3.060000000e+02 >=   2.810000000e+02   8.2% (5284; 5233)
+6697090: mip =   3.060000000e+02 >=   2.810000000e+02   8.2% (5289; 5247)
+6719802: mip =   3.060000000e+02 >=   2.810000000e+02   8.2% (5295; 5260)
+6744564: mip =   3.060000000e+02 >=   2.810000000e+02   8.2% (5310; 5274)
+6767089: mip =   3.060000000e+02 >=   2.810000000e+02   8.2% (5314; 5297)
+6789198: mip =   3.060000000e+02 >=   2.810000000e+02   8.2% (5314; 5315)
+6811675: mip =   3.060000000e+02 >=   2.810000000e+02   8.2% (5318; 5332)
+6834313: mip =   3.060000000e+02 >=   2.810000000e+02   8.2% (5340; 5345)
Warning: numerical instability (dual simplex, phase II)
Warning: numerical instability (dual simplex, phase II)
Warning: numerical instability (dual simplex, phase II)
+6856570: mip =   3.060000000e+02 >=   2.810000000e+02   8.2% (5347; 5356)
+6879358: mip =   3.060000000e+02 >=   2.810000000e+02   8.2% (5359; 5366)
+6901776: mip =   3.060000000e+02 >=   2.810000000e+02   8.2% (5360; 5385)
+6925471: mip =   3.060000000e+02 >=   2.820000000e+02   7.8% (5377; 5406)
Time used: 1566.3 secs.  Memory used: 74.1 Mb.
+6949680: mip =   3.060000000e+02 >=   2.820000000e+02   7.8% (5403; 5415)
+6972986: mip =   3.060000000e+02 >=   2.820000000e+02   7.8% (5441; 5424)
+6997932: mip =   3.060000000e+02 >=   2.820000000e+02   7.8% (5480; 5443)
+7022736: mip =   3.060000000e+02 >=   2.820000000e+02   7.8% (5528; 5460)
+7047462: mip =   3.060000000e+02 >=   2.820000000e+02   7.8% (5550; 5467)
+7071468: mip =   3.060000000e+02 >=   2.820000000e+02   7.8% (5589; 5488)
+7096453: mip =   3.060000000e+02 >=   2.820000000e+02   7.8% (5619; 5503)
+7119265: mip =   3.060000000e+02 >=   2.820000000e+02   7.8% (5652; 5508)
+7141777: mip =   3.060000000e+02 >=   2.820000000e+02   7.8% (5692; 5519)
+7164942: mip =   3.060000000e+02 >=   2.820000000e+02   7.8% (5714; 5539)
+7187884: mip =   3.060000000e+02 >=   2.820000000e+02   7.8% (5745; 5550)
Time used: 1626.3 secs.  Memory used: 78.2 Mb.
Warning: numerical instability (dual simplex, phase II)
+7212795: mip =   3.060000000e+02 >=   2.820000000e+02   7.8% (5772; 5568)
+7235089: mip =   3.060000000e+02 >=   2.820000000e+02   7.8% (5810; 5576)
+7257914: mip =   3.060000000e+02 >=   2.820000000e+02   7.8% (5818; 5591)
+7280724: mip =   3.060000000e+02 >=   2.820000000e+02   7.8% (5852; 5600)
+7305338: mip =   3.060000000e+02 >=   2.820000000e+02   7.8% (5876; 5606)
+7326462: mip =   3.060000000e+02 >=   2.820000000e+02   7.8% (5890; 5616)
+7350818: mip =   3.060000000e+02 >=   2.820000000e+02   7.8% (5913; 5634)
+7374149: mip =   3.060000000e+02 >=   2.820000000e+02   7.8% (5939; 5646)
+7397314: mip =   3.060000000e+02 >=   2.820000000e+02   7.8% (5957; 5656)
+7421738: mip =   3.060000000e+02 >=   2.820000000e+02   7.8% (5982; 5672)
+7445707: mip =   3.060000000e+02 >=   2.820000000e+02   7.8% (6012; 5681)
Time used: 1686.5 secs.  Memory used: 81.4 Mb.
+7468512: mip =   3.060000000e+02 >=   2.820000000e+02   7.8% (6031; 5693)
+7491475: mip =   3.060000000e+02 >=   2.820000000e+02   7.8% (6065; 5702)
+7517194: mip =   3.060000000e+02 >=   2.820000000e+02   7.8% (6092; 5706)
+7541248: mip =   3.060000000e+02 >=   2.820000000e+02   7.8% (6121; 5722)
+7564429: mip =   3.060000000e+02 >=   2.820000000e+02   7.8% (6146; 5733)
+7588990: mip =   3.060000000e+02 >=   2.820000000e+02   7.8% (6192; 5749)
+7612242: mip =   3.060000000e+02 >=   2.820000000e+02   7.8% (6209; 5763)
+7633935: mip =   3.060000000e+02 >=   2.820000000e+02   7.8% (6216; 5771)
+7656737: mip =   3.060000000e+02 >=   2.820000000e+02   7.8% (6236; 5791)
+7679984: mip =   3.060000000e+02 >=   2.820000000e+02   7.8% (6255; 5806)
+7704832: mip =   3.060000000e+02 >=   2.820000000e+02   7.8% (6276; 5817)
Warning: numerical instability (dual simplex, phase I)
Warning: numerical instability (dual simplex, phase II)
Warning: numerical instability (dual simplex, phase II)
Warning: numerical instability (dual simplex, phase II)
Warning: numerical instability (dual simplex, phase II)
+7728531: mip =   3.060000000e+02 >=   2.820000000e+02   7.8% (6293; 5831)
Warning: numerical instability (dual simplex, phase II)
Time used: 1748.0 secs.  Memory used: 84.3 Mb.
+7753033: mip =   3.060000000e+02 >=   2.820000000e+02   7.8% (6314; 5839)
+7775518: mip =   3.060000000e+02 >=   2.820000000e+02   7.8% (6329; 5853)
+7797581: mip =   3.060000000e+02 >=   2.820000000e+02   7.8% (6339; 5868)
+7821289: mip =   3.060000000e+02 >=   2.820000000e+02   7.8% (6382; 5885)
+7844180: mip =   3.060000000e+02 >=   2.820000000e+02   7.8% (6388; 5897)
+7867454: mip =   3.060000000e+02 >=   2.820000000e+02   7.8% (6399; 5912)
+7890190: mip =   3.060000000e+02 >=   2.820000000e+02   7.8% (6417; 5927)
+7914193: mip =   3.060000000e+02 >=   2.820000000e+02   7.8% (6435; 5943)
+7937587: mip =   3.060000000e+02 >=   2.820000000e+02   7.8% (6453; 5959)
+7960834: mip =   3.060000000e+02 >=   2.820000000e+02   7.8% (6472; 5969)
